! Created Mon Sep 21 19:09:59 2026
! List of port names and net name(s): example Port n = <port_name> <net_name1> <net_name2> ...
! Port 1 = P1 P1 
! Port 2 = P2 P2 
# hz S ma R 50
! Port[1] 
! Port[2] 
! 2 Port Network Data from data block
! freq  magS11  angS11  magS21  angS21  magS12  angS12  magS22  angS22  
!     
0           0.00775250036                        0        0.992247499640668                        0        0.992247499640669                        0            0.00775250036                        0
2000000000       0.052994464125686         75.9615419960547        0.986626910442954        -4.71073269854743        0.986626910442954        -4.71073269854743       0.0530018275739605         75.8803516726095
4000000000       0.103545181321461         77.2774571809577        0.976311492222464        -9.19169227939945        0.976311492222464        -9.19169227939945        0.103494751759093         77.1259969089311
6000000000        0.15537374250699         75.4559355743726         0.96277738356767        -13.5283502052901         0.96277738356767        -13.5283502052901        0.155184704967032         75.2585137208101
8000000000       0.207800145051533         72.4453167822179        0.946682173356608        -17.7500741487647        0.946682173356608        -17.7500741487647        0.207417268032189         72.2182031141784
10000000000       0.259845992644284         68.8778407462354        0.928401407613735        -21.8845069593803        0.928401407613735        -21.8845069593803        0.259243150994654         68.6290383595477
12000000000       0.310768464034511         65.0553566947467        0.908091871772081        -25.9508532135124        0.908091871772081        -25.9508532135124        0.309938628836867         64.7878298605976
14000000000       0.360086534815073         61.1314737535896        0.885848116899582         -29.959459204105        0.885848116899582         -29.959459204105        0.359032715053165         60.8456924272822
16000000000       0.407503603393173         57.1856960067609        0.861775703726953        -33.9151120553054        0.861775703726953        -33.9151120553054        0.406233396909624         56.8810377765578
18000000000       0.452839794200204         53.2596097613647        0.836006885864003        -37.8198643762986        0.836006885864003        -37.8198643762986        0.451362573132303          52.935033327003
20000000000       0.495988425298954         49.3750313237136        0.808695348067485         -41.674670350815        0.808695348067485         -41.674670350815         0.49431399016159         49.0293758729652
22000000000        0.53688999195374         45.5432524210419        0.780007102393548        -45.4801760046125        0.780007102393548        -45.4801760046125        0.535027959738292         45.1753611749417
24000000000       0.575516683069885         41.7698627453881         0.75011297449344        -49.2370515220189         0.75011297449344        -49.2370515220189        0.573476227944832          41.378625623886
26000000000       0.611863023934492         38.0573328576332         0.71918351294389         -52.946111496237         0.71918351294389         -52.946111496237        0.609652787275532         37.6416950757713
28000000000       0.645940113686198         34.4064307585534        0.687385846734276        -56.6083523714003        0.687385846734276        -56.6083523714003        0.643568182260396         33.9653866612851
30000000000        0.67777199766411         30.8170116042681        0.654881812612756        -60.2249696453879        0.654881812612756        -60.2249696453879        0.675245916943894         30.3495940651664
32000000000       0.707393324716254         27.2884596070049        0.621826840029544        -63.7973822849989        0.621826840029544        -63.7973822849989        0.704720119271499         26.7937283611342
34000000000       0.734847759942527         23.8199327940197        0.588369239697519        -67.3272758009272        0.588369239697519        -67.3272758009272        0.732033953167973         23.2969632560447
36000000000       0.760186818507447         20.4104938564517        0.554649722101418        -70.8166682874195        0.554649722101418        -70.8166682874195        0.757238454435639         19.8583673494089
38000000000       0.783468936393632         17.0591748359187        0.520801029676539        -74.2680060816659        0.520801029676539        -74.2680060816659        0.780391595249257         16.4769703449968
40000000000       0.804758635571419         13.7650051048182        0.486947663290136        -77.6842942008778        0.486947663290136        -77.6842942008778        0.801557447150187         13.1517918050799
42000000000       0.824125739471936         10.5270174312428        0.453205670333392        -81.0692756688016        0.453205670333392        -81.0692756688016        0.820805391930007         9.88184824693484
44000000000       0.841644590808775         7.34424369321137        0.419682532323178         -84.427680265677        0.419682532323178         -84.427680265677        0.838209339044138         6.66614989405269
46000000000       0.857393265700606          4.2157053351591        0.386477139296996         -87.765576067536        0.386477139296996         -87.765576067536        0.853846938063913         3.50369173554282
48000000000       0.871452793873175         1.14040259923793        0.353679880080172        -91.0908837228079        0.353679880080172        -91.0908837228079        0.867798797030761        0.393443253575109
50000000000       0.883906386024613        -1.88269575326254        0.321372861248494        -94.4141500592345        0.321372861248494        -94.4141500592345        0.880147707743801        -2.66566153556257
52000000000       0.894838679388477        -4.85466142308774        0.289630286995863        -97.7497538873009        0.289630286995863        -97.7497538873009        0.890977893358318        -5.67473264370548
54000000000       0.904335026858933        -7.77661355733812        0.258519036646044        -101.117859492043        0.258519036646044        -101.117859492043        0.900374298057347        -8.63493087057095
56000000000       0.912480828865361        -10.6497237831459        0.228099552084441        -104.547723959397        0.228099552084441        -104.547723959397        0.908421914219888         -11.547472597592
58000000000       0.919360914306788        -13.4752192632385         0.19842720827105         -108.08359598788         0.19842720827105         -108.08359598788        0.915205170511508        -14.4136330478422
60000000000        0.92505900109284        -16.2543844626273         0.16955464025642        -111.795917101516         0.16955464025642        -111.795917101516        0.920807383774318        -17.2347472967722
62000000000       0.929657203140413        -18.9885611651637         0.14153609580933        -115.804319001849         0.14153609580933        -115.804319001849        0.925310273557674        -20.0122109044397
64000000000       0.933235615962823        -21.6791477278634        0.114436802677354        -120.329783003806        0.114436802677354        -120.329783003806        0.928793546077336        -22.7474787510265
66000000000        0.93587197436998        -24.3275975054692       0.0883566794518944        -125.829607285331       0.0883566794518944        -125.829607285331        0.931334545304302        -25.4420636608748
68000000000       0.937641361221548        -26.9354166218142       0.0635044743034123        -133.415894921052       0.0635044743034123        -133.415894921052        0.933007970680433        -28.0975340742629
70000000000       0.938615993827684        -29.5041617683216       0.0405094136279274        -146.524257478704       0.0405094136279274        -146.524257478704        0.933885657524661        -30.7155118786742
72000000000       0.938865053212183        -32.0354377706173       0.0223802537460356        -179.099991904229       0.0223802537460356        -179.099991904229        0.934036407083367        -33.2976700100993
74000000000       0.938454579229361        -34.5308946676883       0.0220193758621464         115.923714813936       0.0220193758621464         115.923714813936        0.933525878771029        -35.8457297850763
76000000000       0.937447399228668        -36.9922264651562       0.0383321691129115         83.6259694364935       0.0383321691129115         83.6259694364935        0.932416525241872        -38.3614592666062
78000000000       0.935903107458846        -39.4211684976313        0.057753398205992         70.7198334043087        0.057753398205992         70.7198334043087        0.930767562833544        -40.8466713234709
80000000000       0.933878077037116        -41.8194966124311       0.0772618287454981         63.3732583126486       0.0772618287454981         63.3732583126486        0.928634983706266        -43.3032223177753
82000000000       0.931425492909192        -44.1890261629412       0.0962439646607606         58.1762537551001       0.0962439646607606         58.1762537551001        0.926071594467469         -45.733011602056
84000000000       0.928595423794878        -46.5316119491015        0.114513850166571         54.0230091157732        0.114513850166571         54.0230091157732        0.923127080417733         -48.137981123038
86000000000       0.925434900659077        -48.8491485091694        0.132000587378389         50.4581438510259        0.132000587378389         50.4581438510259        0.919848084953597        -50.5201162981864
88000000000        0.92198801719746        -51.1435712699367        0.148674268130037         47.2612697653896        0.148674268130037         47.2612697653896        0.916278307130008        -52.8814470608795
90000000000       0.918296033134293        -53.4168588670476         0.16452243160757         44.3128393211982         0.16452243160757         44.3128393211982        0.912458609845954        -55.2240500471406
92000000000       0.914397496355055        -55.6710354003525          0.1795409067769         41.5422576702253          0.1795409067769         41.5422576702253        0.908427132947249        -57.5500511628772
94000000000       0.910328352240282        -57.9081742464775        0.193729643338643         38.9049913416706        0.193729643338643         38.9049913416706         0.90421940770069        -59.8616297774111
96000000000        0.90612206539971        -60.1304025176697        0.207090572764265         36.3714157468184        0.207090572764265         36.3714157468184        0.899868470952743        -62.1610226891633
98000000000       0.901809730794501        -62.3399065441091        0.219626367910896         33.9209440404431        0.219626367910896         33.9209440404431        0.895404982904029        -64.4505299424367
100000000000       0.897420181025781        -64.5389380310553        0.231339655298838         31.5387430253853        0.231339655298838         31.5387430253853        0.890857326829256        -66.7325213878934
