! Created Mon Sep 21 17:41:35 2026
! List of port names and net name(s): example Port n = <port_name> <net_name1> <net_name2> ...
! Port 1 = P1 P1 
! Port 2 = P2 P2 
# hz S ma R 50
! Port[1] 
! Port[2] 
! 2 Port Network Data from data block
! freq  magS11  angS11  magS21  angS21  magS12  angS12  magS22  angS22  
!     
2000000000      0.0826016025533629         75.6529543554296        0.981236167221923         -6.9522123297947        0.981236167221923         -6.9522123297947       0.0826099532221906          75.571713684512
4000000000       0.161575611469127         73.8893653742258        0.963149533183829        -13.5983613002029        0.963149533183829        -13.5983613002029        0.161490050068419         73.7399257226566
6000000000       0.240320936959634         69.5766777438239        0.937938889290286        -20.0241280595963        0.937938889290286        -20.0241280595963        0.240021132184165         69.3828630454094
8000000000       0.317229347386398         64.3991110043626        0.906899402171155        -26.2466725889669        0.906899402171155        -26.2466725889669        0.316640384802158         64.1764948361748
10000000000       0.390583224424223         58.8951182231611        0.871079214684449        -32.2822698487346        0.871079214684449        -32.2822698487346        0.389677588833839         58.6511148229237
12000000000       0.459196402079223         53.3193884252953        0.831339645801057        -38.1406211296367        0.831339645801057        -38.1406211296367        0.457976058639626         53.0565426423507
14000000000       0.522408601285444         47.8008039842268        0.788483951037387        -43.8263811394156        0.788483951037387        -43.8263811394156        0.520889964125026         47.5192930806706
16000000000       0.579949691782528         42.4045268059788        0.743283217153585        -49.3433440179508        0.743283217153585        -49.3433440179508        0.578154872878279         42.1035081951674
18000000000       0.631814456227693         37.1619193307759        0.696454895775616        -54.6970409796699        0.696454895775616        -54.6970409796699         0.62976681639771          36.840164571934
20000000000       0.678168807156588         32.0858412250839        0.648639025944303        -59.8956718746698        0.648639025944303        -59.8956718746698        0.675890857830382         31.7420111432049
22000000000       0.719283052878859         27.1788256917044        0.600386174334146        -64.9501805282455        0.600386174334146        -64.9501805282455        0.716795543217176         26.8115784925447
24000000000       0.755485556751607         22.4376418171445        0.552156724315615         -69.874103429072        0.552156724315615         -69.874103429072        0.752807145344649         22.0456673537121
26000000000       0.787131385423218         17.8559291467399        0.504327493998373        -74.6835573482172        0.504327493998373        -74.6835573482172        0.784278589492154         17.4379520375238
28000000000       0.814581768434715         13.4257503855165        0.457201907514673        -79.3975848071806        0.457201907514673        -79.3975848071806        0.811569044360259         12.9805204248726
30000000000       0.838191168004599         9.13851063888998        0.411021221329757        -84.0390555105062        0.411021221329757        -84.0390555105062        0.835031048695645          8.6647899350744
32000000000        0.85829956348654         4.98549495446292        0.365975438353594        -88.6364151660187        0.365975438353594        -88.6364151660187        0.855002814017344         4.48204398093425
34000000000       0.875228207379191        0.958171520568163         0.32221341025474        -93.2268386887075         0.32221341025474        -93.2268386887075        0.871803975508406        0.423736682275057
36000000000       0.889277631854051        -2.95164765730918        0.279852198597921        -97.8619228402841        0.279852198597921        -97.8619228402841        0.885733599641549        -3.51834560285966
38000000000       0.900727077755589        -6.75173443863941        0.238986383933029         -102.61838773278        0.238986383933029         -102.61838773278        0.897069587699594        -7.35201047456426
40000000000       0.909834782615907        -10.4494242958093        0.199698903738693        -107.619565125285        0.199698903738693        -107.619565125285        0.906068954708251        -11.0846384249841
42000000000       0.916838768030295        -14.0516266892538        0.162077434452807        -113.082585333854        0.162077434452807        -113.082585333854        0.912968607671114        -14.7231918256305
44000000000       0.921957906326128         -17.564852092684        0.126247816118894        -119.435009061673        0.126247816118894        -119.435009061673        0.917986393351348        -18.2742419967228
46000000000       0.925393112539159        -20.9952480962363       0.0924653541970294        -127.652430832066       0.0924653541970294        -127.652430832066        0.921322278505269        -21.7440041089635
48000000000       0.927328580430201        -24.3486382868956        0.061450943969837        -140.462257588901        0.061450943969837        -140.462257588901        0.923159574714308        -25.1383760800588
50000000000       0.927932999490642        -27.6305624616303       0.0361297831314779        -167.434331567372       0.0361297831314779        -167.434331567372        0.923666151504263        -28.4629784663015
52000000000       0.927360744151043        -30.8463155565881       0.0290133215244064         135.174955226649       0.0290133215244064         135.174955226649        0.922995608575083        -31.7231931121009
54000000000        0.92575299146106        -34.0009849020919       0.0459130092868496         94.7204217044651       0.0459130092868496         94.7204217044651        0.921288387662159        -34.9242006647565
56000000000       0.923238780661764        -37.0994862968147        0.069607513545417         77.7926362044534        0.069607513545417         77.7926362044534        0.918672827864417        -38.0710160810686
58000000000       0.919936002318384        -40.1465976927543       0.0938782915002246         68.4213116323573       0.0938782915002246         68.4213116323573        0.915266146313817        -41.1685227741976
60000000000       0.915952313684296        -43.1469916829918        0.117429766701211         61.9121760923686        0.117429766701211         61.9121760923686        0.911175344619935        -44.2215052291254
62000000000        0.91138598871489        -46.1052673511821        0.139894698598494         56.7625104628791        0.139894698598494         56.7625104628791         0.90649805962146        -47.2346804597456
64000000000       0.906326695829091        -49.0259813573132        0.161144435213382         52.3679935300437        0.161144435213382         52.3679935300437        0.901323332313596        -50.2127295418195
66000000000       0.900856212753145        -51.9136787405043        0.181130781561453         48.4416144719831        0.181130781561453         48.4416144719831        0.895732318644885        -53.1603287066396
68000000000       0.895049073110227        -54.7729247665638        0.199837457919634         44.8297761695458        0.199837457919634         44.8297761695458        0.889798931142907        -56.0821807808657
70000000000       0.888973140160528        -57.6083374806792        0.217261713893806         41.4426197954529        0.217261713893806         41.4426197954529        0.883590415671423        -58.9830485195549
72000000000       0.882690128149856        -60.4246222240489        0.233406153910713         38.2238285042174        0.233406153910713         38.2238285042174        0.877167859084831        -61.8677884983424
74000000000         0.8762560307896          -63.22660813753        0.248274567153584         35.1361446088805        0.248274567153584         35.1361446088805        0.870586628770697        -64.7413884603562
76000000000       0.869721497215328        -66.0192880892934        0.261869512362346         32.1538563120083        0.261869512362346         32.1538563120083        0.863896736227665        -67.6090065207593
78000000000       0.863132111882572        -68.8078618746504        0.274190746889241         29.2586597095063        0.274190746889241         29.2586597095063        0.857143122328298         -70.476014949245
80000000000       0.856528583855396         -71.597784375244        0.285234066381953         26.4372789818264        0.285234066381953         26.4372789818264        0.850365846703171        -73.3480480027069
82000000000       0.849946836043036        -74.3948186088569        0.294990371149923         23.6800700214865        0.294990371149923         23.6800700214865        0.843600181489694        -76.2310550524774
84000000000       0.843417964851714        -77.2050956624316        0.303444855343749         20.9802058522045        0.303444855343749         20.9802058522045        0.836876573715557        -79.1313598292202
86000000000       0.836968053595188         -80.035181053934        0.310576267889444         18.3332433411727        0.310576267889444         18.3332433411727        0.830220463438952        -82.0557271083147
88000000000       0.830617794621899        -82.8921499993872        0.316356243030258         15.7369636493846        0.316356243030258         15.7369636493846        0.823651926274106         -85.011436903867
90000000000       0.824381895577662         -85.783671079259        0.320748731988249         13.1914428628243        0.320748731988249         13.1914428628243        0.817185086481037        -88.0063678480799
92000000000       0.818268184014735        -88.7180995360579        0.323709598545557         10.6993468640922        0.323709598545557         10.6993468640922        0.810827256606743        -91.0490896288753
94000000000       0.812276369235494        -91.7045804327609        0.325186505860144         8.26648345970158        0.325186505860144         8.26648345970158         0.80457771920377        -94.1489650144817
96000000000       0.806396332024791        -94.7531606383809        0.325119325699828         5.90267933498985        0.325119325699828         5.90267933498985        0.798426069283193        -97.3162605744003
98000000000       0.800605853646644        -97.8749077572094        0.323441437422439         3.62309823455695        0.323441437422439         3.62309823455695        0.792349999228209        -100.562264096361
100000000000       0.794867614379367        -101.082031865051        0.320082531901991         1.45018138800664        0.320082531901991         1.45018138800664        0.786312382136843        -103.899403962677
