! Created Thu Oct  1 20:40:43 2026
! List of port names and net name(s): example Port n = <port_name> <net_name1> <net_name2> ...
! Port 1 = P1 P1 
! Port 2 = P2 P2 
# hz S ma R 50
! Port[1] 
! Port[2] 
! 2 Port Network Data from data block
! freq  magS11  angS11  magS21  angS21  magS12  angS12  magS22  angS22  
!     
0     0.00848797506                  0        0.991512025                  0        0.991512025                  0      0.00848797506                  0
2e+09      0.0624621507         76.0304968        0.984954679        -5.43336227        0.984954679        -5.43336227       0.0624695509         75.9493931
4e+09       0.122229309         76.2795779        0.972397932         -10.614263        0.972397932         -10.614263        0.122166741         76.1293718
6e+09        0.18299721         73.6078321         0.95550209        -15.6302213         0.95550209        -15.6302213        0.182770743         73.4126764
8e+09       0.243834795         69.8605529        0.935072444        -20.5091521        0.935072444        -20.5091521          0.2433821         69.6364269
1e+10       0.303543838         65.6312597        0.911622266        -25.2769499        0.911622266        -25.2769499        0.302837345         65.3859286
1.2e+10       0.361228148          61.201729        0.885451875        -29.9505886        0.885451875        -29.9505886        0.360262713             60.938
1.4e+10       0.416313138         56.7152791        0.856810898        -34.5383362        0.856810898        -34.5383362        0.415095217         56.4335247
1.6e+10       0.468456505          52.246221        0.825964811        -39.0435493        0.825964811        -39.0435493        0.466997726         51.9457555
1.8e+10       0.517470328         47.8333821        0.793201662        -43.4676627        0.793201662        -43.4676627        0.515784187         47.5131188
2e+10       0.563269105         43.4968622        0.758819984        -47.8117991        0.758819984        -47.8117991        0.561369382          43.155603
2.2e+10       0.605836647         39.2466073        0.723115594        -52.0774647        0.723115594        -52.0774647        0.603736679         38.8831594
2.4e+10       0.645204673         35.0869309        0.686372164        -56.2667824        0.686372164        -56.2667824        0.642917033          34.700147
2.6e+10       0.681438533         31.0189766        0.648855681        -60.3825385        0.648855681        -60.3825385        0.678974928         30.6077611
2.8e+10        0.71462747          27.042099        0.610811761        -64.4281845        0.610811761        -64.4281845        0.711998704         26.6054008
3e+10       0.744877758         23.1546518        0.572464755        -68.4078591        0.572464755        -68.4078591        0.742093753          22.691453
3.2e+10       0.772307784         19.3544439        0.534017911        -72.3264666        0.534017911        -72.3264666        0.769377602         18.8637479
3.4e+10       0.797044387          15.639003        0.495654091        -76.1898327        0.495654091        -76.1898327        0.793976275         15.1198226
3.6e+10       0.819220071         12.0057246        0.457536777         -80.004964        0.457536777         -80.004964        0.816021492         11.4570725
3.8e+10       0.838970803         8.45195501        0.419811241        -83.7804532        0.419811241        -83.7804532        0.835648472         7.87283469
4e+10       0.856434227         4.97503509        0.382605798        -87.5271017        0.382605798        -87.5271017        0.852994144          4.3644334
4.2e+10       0.871748189         1.57232028        0.346033149        -91.2588874        0.346033149        -91.2588874        0.868195668        0.929200894
4.4e+10       0.885049497        -1.75881101        0.310191835        -94.9945077        0.310191835        -94.9945077        0.881389194        -2.43551346
4.6e+10       0.896472882        -5.02095678        0.275167887        -98.7599319        0.275167887        -98.7599319        0.892708827        -5.73234177
4.8e+10        0.90615013        -8.21669364        0.241036814        -102.592814        0.241036814        -102.592814        0.902285746        -8.96389939
5e+10       0.914209363        -11.3485806        0.207866297        -106.550559        0.207866297        -106.550559        0.910247492        -12.1327884
5.2e+10       0.920774459        -14.4191629        0.175720375         -110.72611        0.175720375         -110.72611        0.916717383        -15.2416008
5.4e+10       0.925964596        -17.4309758        0.144667115        -115.281585        0.144667115        -115.281585        0.921814062        -18.2929225
5.6e+10       0.929893911        -20.3865475        0.114795537        -120.528355        0.114795537        -120.528355        0.925651142        -21.2893359
5.8e+10       0.932671257        -23.2884027       0.0862612073        -127.147966       0.0862612073        -127.147966         0.92833698        -24.2334232
6e+10       0.934400061        -26.1390639       0.0594434637        -136.938356       0.0594434637        -136.938356        0.929974515        -27.1277678
6.2e+10       0.935178245        -28.9410549       0.0357054116        -156.062573       0.0357054116        -156.062573        0.930661203        -29.9749577
6.4e+10       0.935098234        -31.6969023        0.022121867         154.674915        0.022121867         154.674915        0.930489011         -32.777587
6.6e+10       0.934247011        -34.4091379       0.0317454843         100.520015       0.0317454843         100.520015         0.92954448        -35.5382581
6.8e+10       0.932706218        -37.0803016        0.051654957         79.1788429        0.051654957         79.1788429         0.92790882        -38.2595851
7e+10       0.930552309        -39.7129443       0.0729177676         68.9137789       0.0729177676         68.9137789        0.925658061        -40.9441958
7.2e+10       0.927856716        -42.3096311       0.0938552533         62.3366131       0.0938552533         62.3366131         0.92286322        -43.5947362
7.4e+10       0.924686056         -44.872946        0.114048471         57.3681188        0.114048471         57.3681188        0.919590506        -46.2138741
7.6e+10       0.921102332        -47.4054961        0.133355854         53.2436798        0.133355854         53.2436798        0.915901519        -48.8043038
7.8e+10       0.917163168        -49.9099177        0.151721912         49.6212802        0.151721912         49.6212802        0.911853482        -51.3687526
8e+10       0.912922025        -52.3888827        0.169124433         46.3256203        0.169124433         46.3256203         0.90749946        -53.9099864
8.2e+10       0.908428433        -54.8451062        0.185555914         43.2574816        0.185555914         43.2574816        0.902888586        -56.4308177
8.4e+10       0.903728202        -57.2813548        0.201015756         40.3562935        0.201015756         40.3562935        0.898066279        -58.9341145
8.6e+10       0.898863639        -59.7004573        0.215506502         37.5828001        0.215506502         37.5828001        0.893074449        -61.4228098
8.8e+10       0.893873737        -62.1053148        0.229031791         34.9102979        0.229031791         34.9102979        0.887951695        -63.8999127
9e+10       0.888794355        -64.4989143        0.241595094         32.3198867        0.241595094         32.3198867        0.882733483        -66.3685213
9.2e+10       0.883658372        -66.8843422        0.253198882         29.7977558        0.253198882         29.7977558        0.877452296        -68.8318367
9.4e+10       0.878495818         -69.264801         0.26384399         27.3335589         0.26384399         27.3335589        0.872137769        -71.2931791
9.6e+10       0.873333969        -71.6436269        0.273529122         24.9194169        0.273529122         24.9194169         0.86681679        -73.7560052
9.8e+10       0.868197416        -74.0243101        0.282250406         22.5492883        0.282250406         22.5492883         0.86151356        -76.2239284
1e+11       0.863108075        -76.4105171        0.290001011         20.2185791        0.290001011         20.2185791        0.856249621        -78.7007417
