! Created Mon Sep 21 18:47:28 2026
! List of port names and net name(s): example Port n = <port_name> <net_name1> <net_name2> ...
! Port 1 = P1 P1 
! Port 2 = P2 P2 
# hz S ma R 50
! Port[1] 
! Port[2] 
! 2 Port Network Data from data block
! freq  magS11  angS11  magS21  angS21  magS12  angS12  magS22  angS22  
!     
0           0.00922302326                        0        0.990776976742322                        0        0.990776976742322                        0            0.00922302326                        0
2000000000       0.072343935115481         75.9101497948769        0.983160297631739        -6.18087698927733        0.983160297631739        -6.18087698927733       0.0723521587425753           75.82904497613
4000000000       0.141606138113854         75.1384313943656        0.968023533387467        -12.0842718656148        0.968023533387467        -12.0842718656148        0.141533394890188         74.9888997549382
6000000000       0.211379338254254         71.6387436033192        0.947242455280548         -17.797893534135        0.947242455280548         -17.797893534135        0.211119340492578          71.444543336949
8000000000       0.280423301367228         67.1697339105021        0.921826186564617        -23.3455906921502        0.921826186564617        -23.3455906921502        0.279907536087552         66.9464743168294
10000000000       0.347289066852898          62.294246614427        0.892504499342414         -28.749355097548        0.892504499342414         -28.749355097548         0.34648950967578         62.0494278507942
12000000000       0.410924033149936         57.2788439921063        0.859807905157287        -34.0227520686629        0.859807905157287        -34.0227520686629        0.409838338823143         57.0150978664588
14000000000       0.470683006807066         52.2590931646055        0.824221973303343        -39.1718144520093        0.824221973303343        -39.1718144520093        0.469321801600314         51.9766713045969
16000000000       0.526221893179665         47.3049824597892        0.786238163066666        -44.1991771743785        0.786238163066666        -44.1991771743785        0.524601306122215         47.0031057404933
18000000000        0.57740261532258         42.4523291700284        0.746347229317946        -49.1070356674633        0.746347229317946        -49.1070356674633        0.575540448842974         42.1298273220972
20000000000       0.624225549035423         37.7185627185213        0.705019472029308        -53.8985479786028        0.705019472029308        -53.8985479786028           0.622139450577         37.3741538025271
22000000000       0.666783167963253         33.1109306590963        0.662689005595474        -58.5782961565349        0.662689005595474        -58.5782961565349        0.664489792924099         32.7433322573851
24000000000       0.705228008665658         28.6309328043348        0.619745294808486        -63.1523365355082        0.619745294808486        -63.1523365355082        0.702742676663752         28.2388987866314
26000000000       0.739750371520344         24.2768097992344          0.5765306210223        -67.6281513541106          0.5765306210223        -67.6281513541106        0.737086959932071         23.8591349426043
28000000000       0.770562780864214          20.044982344623        0.533341338391993        -72.0146606153345        0.533341338391993        -72.0146606153345         0.76773372227357         19.6004940729305
30000000000       0.797889184401898         15.9308997173851        0.490431176836362        -76.3223860487949        0.490431176836362        -76.3223860487949        0.794905523018098         15.4584457654029
32000000000       0.821957497809203          11.929543550229        0.448015473198734        -80.5638385998036        0.448015473198734        -80.5638385998036        0.818828963002818         11.4279794804873
34000000000        0.84299449094994         8.03572580940009        0.406275644182795         -84.754227140345        0.406275644182795         -84.754227140345        0.839729575042691         7.50390287323228
36000000000       0.861222306089997         4.24426076240327        0.365363611536634        -88.9126571158906        0.365363611536634        -88.9126571158906           0.857828346228          3.6810153126317
38000000000       0.876856125413481         0.55006121998829        0.325406067410218        -93.0641343906962        0.325406067410218        -93.0641343906962        0.873339380957282      -0.0457946739138968
40000000000       0.890102631408713        -3.05181257295229        0.286508675972405        -97.2429872991296        0.286508675972405        -97.2429872991296        0.886468351966001         -3.6814993759478
42000000000        0.90115903959783        -6.56613200759308        0.248760498950322        -101.498958420058        0.248760498950322        -101.498958420058        0.897411529980506        -7.23091002249061
44000000000       0.910212530806017        -9.99749597521792        0.212239268987632        -105.908691339654        0.212239268987632        -105.908691339654        0.906355209319835        -10.6986720134152
46000000000        0.91743997519511        -13.3503362292038        0.177019012714038        -110.599059678957        0.177019012714038        -110.599059678957        0.913475427495228        -14.0892696062398
48000000000       0.923007873062817        -16.6289282108152         0.14318392578357        -115.799282986441         0.14318392578357        -115.799282986441        0.918937895199092        -17.4070361217117
50000000000       0.927072448981619        -19.8374041508123        0.110860363048202        -121.972831413197        0.110860363048202        -121.972831413197        0.922898092547598        -20.6561673838742
52000000000       0.929779868244561         -22.979767927947       0.0803110039917743        -130.212285613991       0.0803110039917743        -130.212285613991        0.925501472426803        -23.8407353473584
54000000000        0.93126653328835         -26.059909451462       0.0523051536975349        -143.716640490963       0.0523051536975349        -143.716640490963        0.926883756781351        -26.9647033931404
56000000000       0.931659443851623        -29.0816195921841       0.0301821391860161        -174.218581130456       0.0301821391860161        -174.218581130456        0.927171292907188        -30.0319402426195
58000000000       0.931076609887855        -32.0486043569715       0.0273592423850616         125.319288008723       0.0273592423850616         125.319288008723        0.926481458707762        -33.0462347041384
60000000000       0.929627478733757        -34.9644988737293       0.0450925330726412         89.8473811067074       0.0450925330726412         89.8473811067074        0.924923086908738        -36.0113096070315
62000000000       0.927413394907772        -37.8328815099071       0.0675463578129699         75.0250201638325       0.0675463578129699         75.0250201638325        0.922596922484392        -38.9308354994315
64000000000       0.924528055990558         -40.657287393298       0.0902544310662577         66.5783269987944       0.0902544310662577         66.5783269987944        0.919596072595349        -41.8084446151525
66000000000       0.921057977537323        -43.4412223289731        0.112276171325514         60.6101854860256        0.112276171325514         60.6101854860256        0.916006465875007        -44.6477448791907
68000000000        0.91708294009302        -46.1881770414972        0.133333446703426         55.8439744353265        0.133333446703426         55.8439744353265        0.911907303997285        -47.4523339133311
70000000000       0.912676434048531        -48.9016416578555        0.153325312396182         51.7548708909949        0.153325312396182         51.7548708909949        0.907371492627064        -50.2258140182325
72000000000        0.90790608054713         -51.585121201985        0.172212672885537         48.0895646802057        0.172212672885537         48.0895646802057        0.902466066011896        -52.9718073315685
74000000000       0.902834028707077        -54.2421517781941        0.189981827625415         44.7108971568168        0.189981827625415         44.7108971568168        0.897252579951054        -55.6939726928212
76000000000       0.897517334559521        -56.8763182240897        0.206630354007176         41.5379241565184        0.206630354007176         41.5379241565184        0.891787483584922        -58.3960224521471
78000000000       0.892008297540592        -59.4912727060605        0.222160725197939         38.5195688543686        0.222160725197939         38.5195688543686          0.8861224624522        -61.0817422925685
80000000000       0.886354778184791        -62.0907555164028         0.23657701180786         35.6218343670671         0.23657701180786         35.6218343670671        0.880304741172187        -63.7550110846944
82000000000       0.880600466382701        -64.6786177456462        0.249882975731661         32.8211014018167        0.249882975731661         32.8211014018167        0.874377360200266        -66.4198241893121
84000000000       0.874785105823005        -67.2588461639475        0.262080820535134         30.1003993834962        0.262080820535134         30.1003993834962        0.868379393706279        -69.0803180919713
86000000000       0.868944680784322        -69.8355908572894         0.27317029621238         27.4472312791749         0.27317029621238         27.4472312791749        0.862346136463121        -71.7407981298452
88000000000       0.863111535316327        -72.4131962374395        0.283147984467099         24.8522672310264        0.283147984467099         24.8522672310264        0.856309218601838        -74.4057692304164
90000000000       0.857314426471157        -74.9962351859919        0.292006691218196         22.3085478191005        0.292006691218196         22.3085478191005        0.850296668457275        -77.0799702530534
92000000000       0.851578507716273        -77.5895476579694        0.299734889812169         19.8110088826202        0.299734889812169         19.8110088826202        0.844332887216897         -79.768411899791
94000000000       0.845925213915011        -80.1982833515072         0.30631621356871         17.3562229827058         0.30631621356871         17.3562229827058        0.838438542379531        -82.4764195373813
96000000000       0.840372029816243        -82.8279497299385        0.311728977420633         14.9423042741115        0.311728977420633         14.9423042741115        0.832630342868345        -85.2096805952312
98000000000       0.834932124480242         -85.484464870637        0.315945751987801         12.5689509813772        0.315945751987801         12.5689509813772        0.826920683042504         -87.974297208743
100000000000       0.829613820810757        -88.1742167822867        0.318933017824094         10.2376235942789        0.318933017824094         10.2376235942789        0.821317117317582        -90.7768443695771
