! Created Mon Sep 21 19:24:20 2026
! List of port names and net name(s): example Port n = <port_name> <net_name1> <net_name2> ...
! Port 1 = P1 P1 
! Port 2 = P2 P1 
# hz S ma R 50
! Port[1] 
! Port[2] 
! 2 Port Network Data from data block
! freq  magS11  angS11  magS21  angS21  magS12  angS12  magS22  angS22  
!     
0           0.00400924712                        0        0.995990752878482                        0        0.995990752878482                        0            0.00400924712                        0
2000000000      0.0135759537612995         71.8051604615596        0.994619400561499        -1.82722824340527        0.994619400561499        -1.82722824340527       0.0135759511810823         71.8054598614641
4000000000      0.0265203899559149         81.1547245216517        0.991888959134007        -3.59872181983758        0.991888959134007        -3.59872181983758        0.026520447829497         81.1552684837341
6000000000      0.0406324023837863         84.1304137028352        0.988366225472841        -5.30671187389755        0.988366225472841        -5.30671187389755       0.0406325876987626          84.131112232498
8000000000       0.055666816311788         84.7660459579505        0.984522435395021        -6.95643425480881        0.984522435395021        -6.95643425480881       0.0556671744367991         84.7668512591438
10000000000      0.0712729548720423         84.2300151457395        0.980637318835362        -8.56135068410684        0.980637318835362        -8.56135068410684       0.0712735084804357         84.2309067482462
12000000000      0.0871454602089498         83.0796389523146        0.976815851937014        -10.1350067449043        0.976815851937014        -10.1350067449043       0.0871462179501406          83.080610732728
14000000000       0.103073870303573         81.6112550312811        0.973065325465436        -11.6875165516701        0.973065325465436        -11.6875165516701         0.10307483355102         81.6123069355962
16000000000       0.118928766530135         79.9849010955501        0.969354890811959        -13.2254308844271        0.969354890811959        -13.2254308844271        0.118929932030408         79.9860348942317
18000000000       0.134635355846025          78.287034666578        0.965646200872198          -14.75268538623        0.965646200872198          -14.75268538623        0.134636720381434          78.288252398269
20000000000       0.150152150892413         76.5642024238357        0.961905405046585        -16.2715466596065        0.961905405046585        -16.2715466596065        0.150153710005655         76.5655056892394
22000000000       0.165456974371927          74.841195559871        0.958106260295504        -17.7832851736392        0.958106260295504        -17.7832851736392        0.165458722787448         74.8425853151557
24000000000       0.180538486845254         73.1308672603303        0.954229792590289        -19.2885947575387        0.954229792590289        -19.2885947575387        0.180540419773815           73.13234399279
26000000000       0.195391246413518         71.4394880833027        0.950262969787074        -20.7878396801872        0.950262969787074        -20.7878396801872        0.195393359002065         71.4410517421933
28000000000        0.21001286789869         69.7697007029646        0.946197335462484        -22.2811949169121        0.946197335462484        -22.2811949169121        0.210015155511827         69.7713508806159
30000000000       0.224402430148672         68.1221712625598        0.942027878292582        -23.7687260934819        0.942027878292582        -23.7687260934819        0.224404886886151         68.1239070601805
32000000000       0.238559591639342         66.4965195334893        0.937752183367151        -25.2504346262284        0.937752183367151        -25.2504346262284        0.238562211657254         66.4983397422403
34000000000        0.25248413296101         64.8918463322622         0.93336981327815        -26.7262841984723         0.93336981327815        -26.7262841984723        0.252486910668172         64.8937495838898
36000000000       0.266175735868486         63.3070299267431        0.928881854813324        -28.1962166139964        0.928881854813324        -28.1962166139964        0.266178664377184         63.3090145721237
38000000000       0.279633896790759         61.7408921269936        0.924290601817895        -29.6601620241971        0.924290601817895        -29.6601620241971         0.27963697029823         61.7429559351993
40000000000       0.292857925593159         60.1922855411784        0.919599303911466        -31.1180456068617        0.919599303911466        -31.1180456068617        0.292861136965539         60.1944264494725
42000000000       0.305846975363101         58.6601380900962        0.914811988458331        -32.5697926798491        0.914811988458331        -32.5697926798491        0.305850315133807         58.6623537914682
44000000000        0.31860009004078         57.1434721008381        0.909933315482299        -34.0153320810796        0.909933315482299        -34.0153320810796        0.318603552040552         57.1457595738069
46000000000        0.33111626618232         55.6414068363279        0.904968458543553        -35.4545989039367        0.904968458543553        -35.4545989039367        0.331119841478196          55.643763598097
48000000000       0.343394501615147         54.1531559691667         0.89992301124774        -36.8875370114188         0.89992301124774        -36.8875370114188        0.343398180977282         54.1555787936568
50000000000       0.355433845550997         52.6780191069586        0.894802904796888        -38.3141004446643        0.894802904796888        -38.3141004446643        0.355437620128423         52.6805049163732
52000000000       0.367233439590357         51.2153725467394        0.889614335091744        -39.7342546675077        0.889614335091744        -39.7342546675077        0.367237300646263         51.2179177222226
54000000000       0.378792552732524         49.7646594526062        0.884363708312009        -41.1479778702405        0.884363708312009        -41.1479778702405        0.378796489682822         49.7672603462341
56000000000        0.39011060409861         48.3253802205854        0.879057580843972        -42.5552612862049        0.879057580843972        -42.5552612862049        0.390114606152471          48.328032888765
58000000000       0.401187185119342         46.8970839968627         0.87370261839606        -43.9561099275993         0.87370261839606        -43.9561099275993         0.40119124038363         46.8997844147536
60000000000       0.412022068341962          45.479360462542        0.868305552957305        -45.3505427894639        0.868305552957305        -45.3505427894639        0.412026167678461          45.482104388137
62000000000       0.422615220874735         44.0718336811109        0.862873145502649         -46.738593057324        0.862873145502649         -46.738593057324        0.422619350585423         44.0746161897107
64000000000       0.432966799195584         42.6741552067631        0.857412159790628        -48.1203079749005        0.857412159790628        -48.1203079749005        0.432970947822658         42.6769717306492
66000000000       0.443077155134739          41.285999534432         0.85192933006574        -49.4957488180718         0.85192933006574        -49.4957488180718        0.443081310430744         41.2888447902387
68000000000       0.452946827370691         39.9070592544503        0.846431344036444        -50.8649907287024        0.846431344036444        -50.8649907287024        0.452950975670544         39.9099282363382
70000000000       0.462576534573187         38.5370421021902        0.840924817581047        -52.2281223015269        0.840924817581047        -52.2281223015269        0.462580661785039         38.5399289603235
72000000000       0.471967166817852         37.1756665484605        0.835416280954902        -53.5852456007172        0.835416280954902        -53.5852456007172        0.471971260515641         37.1785654175869
74000000000       0.481119775606714         35.8226602066681        0.829912167264159         -54.936475394042        0.829912167264159         -54.936475394042        0.481123819680439         35.8255650786188
76000000000        0.49003555898641         34.4777570687575         0.82441879942242        -56.2819391969585         0.82441879942242        -56.2819391969585         0.49003953809184         34.4806613916313
78000000000       0.498715850215099         33.1406958537141        0.818942378824037        -57.6217765542793        0.818942378824037        -57.6217765542793        0.498719749811757         33.1435928563664
80000000000       0.507162104961269         31.8112182908857        0.813488983516634        -58.9561388006574        0.813488983516634        -58.9561388006574        0.507165907870147          31.814100698287
82000000000       0.515375884194218         30.4890676281422        0.808064562012758        -60.2851887428178        0.808064562012758        -60.2851887428178        0.515379574237331         30.4919281978916
84000000000       0.523358841282381         29.1739880879873        0.802674927599639         -61.609100075461        0.802674927599639         -61.609100075461        0.523362400499907         29.1768189988352
86000000000       0.531112708321754         27.8657236030177        0.797325761831385         -62.928057235043        0.797325761831385         -62.928057235043         0.53111611854423         27.8685166171384
88000000000       0.538639279894753         26.5640169898997        0.792022608385651        -64.2422548880961        0.792022608385651        -64.2422548880961        0.538642522793354          26.566763569522
90000000000        0.54594039930557         25.2686095303056        0.786770880925656        -65.5518974573074        0.786770880925656        -65.5518974573074         0.54594345545513          25.271300753071
92000000000       0.553017945369478         23.9792404470805        0.781575858421829        -66.8571993409638        0.781575858421829        -66.8571993409638        0.553020794707278         23.9818669655799
94000000000       0.559873817093838         22.6956461910052        0.776442693261441        -68.1583838210024        0.776442693261441        -68.1583838210024        0.559876439017851         22.6981981021659
96000000000       0.566509920377921         21.4175605612617        0.771376412223823        -69.4556836124441        0.771376412223823        -69.4556836124441        0.566512292841549         21.4200275429871
98000000000       0.572928157262352         20.1447138479307         0.76638192166492        -70.7493399804981         0.76638192166492        -70.7493399804981        0.572930257243716         20.1470851101874
100000000000       0.579130408391433         18.8768329490245        0.761464012922839        -72.0396027343771        0.761464012922839        -72.0396027343771        0.579132213664744         18.8790972507736
