! Created Thu Oct  1 20:10:03 2026
! List of port names and net name(s): example Port n = <port_name> <net_name1> <net_name2> ...
! Port 1 = P1 P1 
! Port 2 = P2 P1 
# hz S ma R 50
! Port[1] 
! Port[2] 
! 2 Port Network Data from data block
! freq  magS11  angS11  magS21  angS21  magS12  angS12  magS22  angS22  
!     
0     0.00444465861                  0        0.995555341                  0        0.995555341                  0      0.00444465861                  0
2e+09      0.0159484083         72.6638862         0.99400612        -2.08420912         0.99400612        -2.08420912       0.0159483963         72.6644243
4e+09      0.0313103805         81.2033501        0.990866799        -4.10655977        0.990866799        -4.10655977       0.0313104751         81.2043449
6e+09      0.0479631173         83.6631382         0.98677897         -6.0569893         0.98677897         -6.0569893       0.0479634455         83.6644522
8e+09      0.0656144996          83.915258        0.982281299        -7.94141854        0.982281299        -7.94141854       0.0656151565         83.9168185
1e+10       0.083859769         83.0707831        0.977686694        -9.77508317        0.977686694        -9.77508317       0.0838608158         83.0725552
1.2e+10       0.102350928         81.6565135        0.973109487        -11.5730109        0.973109487        -11.5730109        0.102352401         81.6584828
1.4e+10        0.12084925         79.9511192        0.968556625         -13.346191        0.968556625         -13.346191        0.120851168         79.9532817
1.6e+10       0.139207576         78.1043835        0.963995115        -15.1015772        0.963995115        -15.1015772         0.13920995         78.1067399
1.8e+10       0.157339875         76.1968625        0.959385555        -16.8432283        0.959385555        -16.8432283        0.157342711         76.1994155
2e+10       0.175197209         74.2717326          0.9546947        -18.5733913          0.9546947        -18.5733913        0.175200509         74.2744858
2.2e+10       0.192752169         72.3518786        0.949898366        -20.2932527        0.949898366        -20.2932527        0.192755936         72.3548355
2.4e+10       0.209989535         70.4490941        0.944980709        -22.0034001        0.944980709        -22.0034001        0.209993771         70.4522584
2.6e+10       0.226900857         68.5690801        0.939932581        -23.7040889        0.939932581        -23.7040889        0.226905562         68.5724553
2.8e+10       0.243481367         66.7141945         0.93474991        -25.3953926         0.93474991        -25.3953926        0.243486546         66.7177841
3e+10       0.259728248         64.8849817        0.929432402        -27.0772873        0.929432402        -27.0772873        0.259733901         64.8887886
3.2e+10       0.275639681         63.0810313        0.923982566        -28.7496987        0.923982566        -28.7496987        0.275645809         63.0850587
3.4e+10       0.291214344         61.3014624        0.918405009         -30.412529        0.918405009         -30.412529        0.291220953         61.3057136
3.6e+10       0.306451182          59.545195        0.912705916        -32.0656741        0.912705916        -32.0656741        0.306458272         59.5496728
3.8e+10       0.321349299          57.811098        0.906892677        -33.7090331        0.906892677        -33.7090331        0.321356875         57.8158058
4e+10       0.335907953         56.0980685        0.900973599        -35.3425154        0.900973599        -35.3425154        0.335916019         56.1030092
4.2e+10       0.350126575         54.4050704        0.894957683        -36.9660456        0.894957683        -36.9660456         0.35013513         54.4102471
4.4e+10       0.364004798         52.7311485        0.888854453        -38.5795666        0.888854453        -38.5795666        0.364013849         52.7365646
4.6e+10       0.377542509         51.0754314         0.88267381        -40.1830422         0.88267381        -40.1830422        0.377552059         51.0810902
4.8e+10       0.390739879         49.4371266        0.876425909        -41.7764588        0.876425909        -41.7764588        0.390749933         49.4430313
5e+10        0.40359739         47.8155123        0.870121063        -43.3598266        0.870121063        -43.3598266        0.403607952         47.8216667
5.2e+10       0.416115857         46.2099285        0.863769656        -44.9331806        0.863769656        -44.9331806        0.416126931         46.2163363
5.4e+10        0.42829643          44.619768        0.857382065        -46.4965802        0.857382065        -46.4965802        0.428308021         44.6264329
5.6e+10       0.440140603         43.0444669        0.850968608        -48.0501101        0.850968608        -48.0501101        0.440152714          43.051393
5.8e+10       0.451650199         41.4834973        0.844539481        -49.5938794        0.844539481        -49.5938794        0.451662838         41.4906888
6e+10       0.462827365         39.9363604         0.83810472        -51.1280215         0.83810472        -51.1280215        0.462840536         39.9438217
6.2e+10       0.473674545         38.4025802        0.831674166        -52.6526934        0.831674166        -52.6526934        0.473688255         38.4103158
6.4e+10       0.484194465         36.8816985        0.825257435        -54.1680749        0.825257435        -54.1680749        0.484208721         36.8897133
6.6e+10       0.494390102         35.3732709        0.818863894         -55.674368        0.818863894         -55.674368        0.494404911         35.3815697
6.8e+10        0.50426466         33.8768629        0.812502644        -57.1717957        0.812502644        -57.1717957        0.504280027          33.885451
7e+10       0.513821536         32.3920469        0.806182513        -58.6606013        0.806182513        -58.6606013        0.513837471         32.4009297
7.2e+10       0.523064298         30.9184005        0.799912041        -60.1410474        0.799912041        -60.1410474        0.523080807         30.9275837
7.4e+10       0.531996646         29.4555033        0.793699485        -61.6134151        0.793699485        -61.6134151        0.532013739          29.464993
7.6e+10       0.540622387         28.0029367        0.787552813        -63.0780028        0.787552813        -63.0780028        0.540640073          28.012739
7.8e+10       0.548945406         26.5602814        0.781479706        -64.5351258        0.781479706        -64.5351258        0.548963694         26.5704028
8e+10       0.556969633         25.1271173        0.775487574         -65.985115        0.775487574         -65.985115        0.556988534         25.1375646
8.2e+10        0.56469902         23.7030219        0.769583549        -67.4283162        0.769583549        -67.4283162        0.564718545         23.7138023
8.4e+10       0.572137509         22.2875702        0.763774505        -68.8650899        0.763774505        -68.8650899        0.572157668         22.2986911
8.6e+10       0.579289011         20.8803339        0.758067068        -70.2958097        0.758067068        -70.2958097        0.579309818         20.8918031
8.8e+10       0.586157378         19.4808809        0.752467625        -71.7208629        0.752467625        -71.7208629        0.586178845         19.4927067
9e+10        0.59274638         18.0887751        0.746982339        -73.1406486        0.746982339        -73.1406486        0.592768521          18.100966
9.2e+10       0.599059687          16.703576        0.741617165        -74.5555784        0.741617165        -74.5555784        0.599082516          16.716141
9.4e+10       0.605100839         15.3248385        0.736377862        -75.9660754        0.736377862        -75.9660754        0.605124373          15.337787
9.6e+10       0.610873234         13.9521124         0.73127001        -77.3725741         0.73127001        -77.3725741        0.610897487         13.9654543
9.8e+10       0.616380103         12.5849423        0.726299027        -78.7755198        0.726299027        -78.7755198        0.616405095         12.5986881
1e+11       0.621624498         11.2228679        0.721470178        -80.1753688        0.721470178        -80.1753688        0.621650244         11.2370282
