! Created Thu Oct  1 20:14:39 2026
! List of port names and net name(s): example Port n = <port_name> <net_name1> <net_name2> ...
! Port 1 = P1 P1 
! Port 2 = P2 P1 
# hz S ma R 50
! Port[1] 
! Port[2] 
! 2 Port Network Data from data block
! freq  magS11  angS11  magS21  angS21  magS12  angS12  magS22  angS22  
!     
0     0.00356423863                  0        0.996435761                  0        0.996435761                  0      0.00356423863                  0
2e+09      0.0111980763         70.6017341        0.995251919        -1.57066853        0.995251919        -1.57066853       0.0111981457         70.6003648
4e+09      0.0217372321         80.9957756        0.992930475        -3.09285281        0.992930475        -3.09285281       0.0217371885         80.9929798
6e+09      0.0333224986         84.5883271        0.989954114        -4.56020746        0.989954114        -4.56020746       0.0333220809         84.5844959
8e+09      0.0457441306         85.6558466         0.98672927         -5.9769472         0.98672927         -5.9769472       0.0457431293         85.6512327
1e+10      0.0587014199         85.4515387        0.983503834        -7.35460413        0.983503834        -7.35460413       0.0586997013         85.4462748
1.2e+10       0.071929791           84.57559        0.980374554        -8.70509578        0.980374554        -8.70509578       0.0719272828         84.5697348
1.4e+10       0.085245801         83.3483295        0.977350611        -10.0375259        0.977350611        -10.0375259       0.0852424705         83.3419026
1.6e+10      0.0985366359         81.9434497        0.974405217        -11.3579289        0.974405217        -11.3579289       0.0985324733         81.9364519
1.8e+10       0.111737653         80.4551836        0.971503176        -12.6700268        0.971503176        -12.6700268         0.11173266         80.4476075
2e+10       0.124813801         78.9344969        0.968612194         -13.976035        0.968612194         -13.976035        0.124807988         78.9263317
2.2e+10       0.137747254         77.4086801        0.965706139        -15.2772522        0.965706139        -15.2772522         0.13774063         77.3999141
2.4e+10       0.150529846         75.8919824        0.962765045        -16.5744358        0.962765045        -16.5744358        0.150522422         75.8826041
2.6e+10       0.163158622         74.3914317        0.959774103        -17.8680269        0.959774103        -17.8680269        0.163150411         74.3814302
2.8e+10       0.175633273         72.9100572        0.956722524        -19.1582794        0.956722524        -19.1582794        0.175624283         72.8994223
3e+10       0.187954669         71.4486954         0.95360258        -20.4453353         0.95360258        -20.4453353         0.18794491         71.4374179
3.2e+10       0.200124059         70.0070126         0.95040886        -21.7292669         0.95040886        -21.7292669        0.200113537         69.9950835
3.4e+10       0.212142628         68.5840853        0.947137731        -23.0101027        0.947137731        -23.0101027         0.21213135         68.5714965
3.6e+10       0.224011299         67.1787313        0.943786941        -24.2878421        0.943786941        -24.2878421        0.223999271          67.165475
3.8e+10       0.235730643         65.7896936        0.940355337        -25.5624652        0.940355337        -25.5624652        0.235717871         65.7757625
4e+10        0.24730087         64.4157422        0.936842652        -26.8339394        0.936842652        -26.8339394        0.247287357         64.4011291
4.2e+10       0.258721856         63.0557236        0.933249351        -28.1022242        0.933249351        -28.1022242        0.258707603         63.0404214
4.4e+10       0.269993183         61.7085856        0.929576511         -29.367274        0.929576511         -29.367274        0.269978196         61.6925876
4.6e+10       0.281114199         60.3733828         0.92582572        -30.6290414         0.92582572        -30.6290414        0.281098479         60.3566824
4.8e+10       0.292084068         59.0492746        0.921999007        -31.8874788        0.921999007        -31.8874788        0.292067615         59.0318649
5e+10       0.302901816         57.7355178        0.918098773        -33.1425404        0.918098773        -33.1425404        0.302884633         57.7173921
5.2e+10       0.313566379         56.4314575        0.914127739         -34.394183        0.914127739         -34.394183        0.313548468         56.4126091
5.4e+10       0.324076645         55.1365174        0.910088898        -35.6423678        0.910088898        -35.6423678        0.324058005         55.1169394
5.6e+10       0.334431481         53.8501894        0.905985476        -36.8870606        0.905985476        -36.8870606        0.334412112         53.8298748
5.8e+10       0.344629765         52.5720252        0.901820893        -38.1282329        0.901820893        -38.1282329        0.344609666         52.5509669
6e+10       0.354670406         51.3016276        0.897598737        -39.3658622        0.897598737        -39.3658622        0.354649579         51.2798185
6.2e+10       0.364552368         50.0386431        0.893322734        -40.5999324        0.893322734        -40.5999324        0.364530811         50.0160757
6.4e+10       0.374274679         48.7827559         0.88899672        -41.8304341         0.88899672        -41.8304341        0.374252389         48.7594225
6.6e+10        0.38383644         47.5336812        0.884624625        -43.0573647        0.884624625        -43.0573647        0.383813418         47.5095742
6.8e+10       0.393236844         46.2911611        0.880210452        -44.2807289        0.880210452        -44.2807289        0.393213086         46.2662724
7e+10        0.40247517           45.05496        0.875758255        -45.5005383        0.875758255        -45.5005383        0.402450673         45.0292813
7.2e+10       0.411550792         43.8248611         0.87127213        -46.7168118         0.87127213        -46.7168118        0.411525554         43.7983841
7.4e+10       0.420463179         42.6006629        0.866756198        -47.9295752        0.866756198        -47.9295752        0.420437197         42.5733787
7.6e+10       0.429211899         41.3821767        0.862214598        -49.1388615        0.862214598        -49.1388615        0.429185169         41.3540764
7.8e+10        0.43779661         40.1692248        0.857651466        -50.3447105        0.857651466        -50.3447105        0.437769129          40.140299
8e+10       0.446217067         38.9616373        0.853070938        -51.5471691        0.853070938        -51.5471691        0.446188831         38.9318765
8.2e+10       0.454473114         37.7592516        0.848477137        -52.7462909        0.848477137        -52.7462909        0.454444117         37.7286461
8.4e+10       0.462564678         36.5619104        0.843874162        -53.9421361        0.843874162        -53.9421361        0.462534916         36.5304498
8.6e+10       0.470491772         35.3694607        0.839266091        -55.1347715        0.839266091        -55.1347715        0.470461238         35.3371345
8.8e+10       0.478254483         34.1817522         0.83465697        -56.3242702         0.83465697        -56.3242702        0.478223173         34.1485497
9e+10       0.485852973         32.9986371        0.830050807        -57.5107121        0.830050807        -57.5107121        0.485820877         32.9645471
9.2e+10       0.493287466         31.8199691        0.825451574        -58.6941826        0.825451574        -58.6941826         0.49325458         31.7849798
9.4e+10       0.500558251         30.6456023        0.820863204        -59.8747738        0.820863204        -59.8747738        0.500524566          30.609702
9.6e+10        0.50766567         29.4753912        0.816289585        -61.0525833        0.816289585        -61.0525833        0.507631179         29.4385676
9.8e+10       0.514610116           28.30919         0.81173456        -62.2277147         0.81173456        -62.2277147         0.51457481         28.2714304
1e+11       0.521392025         27.1468523        0.807201928        -63.4002777        0.807201928        -63.4002777        0.521355895         27.1081433
