! Created Thu Oct  1 20:32:54 2026
! List of port names and net name(s): example Port n = <port_name> <net_name1> <net_name2> ...
! Port 1 = P1 P1 
! Port 2 = P2 P1 
# hz S ma R 50
! Port[1] 
! Port[2] 
! 2 Port Network Data from data block
! freq  magS11  angS11  magS21  angS21  magS12  angS12  magS22  angS22  
!     
0     0.00311742591                  0        0.996882574                  0        0.996882574                  0      0.00311742591                  0
2e+09     0.00891426719         68.8291626        0.995880238        -1.31963552        0.995880238        -1.31963552      0.00891425809         68.8295566
4e+09      0.0171332882         80.5490921        0.993949364        -2.59809094        0.993949364        -2.59809094       0.0171333224         80.5498522
6e+09      0.0262710509         84.9031679        0.991486545        -3.83041531        0.991486545        -3.83041531       0.0262711897         84.9041637
8e+09      0.0361488433         86.4782152        0.988832474        -5.01971005        0.988832474        -5.01971005       0.0361491301         86.4793769
1e+10      0.0465133914          86.644377        0.986202522        -6.17545278        0.986202522        -6.17545278       0.0465138508         86.6456742
1.2e+10      0.0571394399         86.0612399        0.983685359        -7.30778372        0.983685359        -7.30778372       0.0571400836         86.0626631
1.4e+10      0.0678693805         85.0822429        0.981293046        -8.42465547        0.981293046        -8.42465547       0.0678702129         85.0837919
1.6e+10      0.0786058135         83.8999057        0.979004367         -9.5314694        0.979004367         -9.5314694       0.0786068359         83.9015835
1.8e+10      0.0892930287          82.619221        0.976789031        -10.6316413        0.976789031        -10.6316413       0.0892942412         82.6210313
2e+10      0.0999012234         81.2973206        0.974618122         -11.727262        0.974618122         -11.727262       0.0999026256         81.2992674
2.2e+10       0.110415809         79.9650315        0.972467448        -12.8195992        0.972467448        -12.8195992        0.110417401         79.9671179
2.4e+10       0.120830795         78.6386214        0.970317866        -13.9094257        0.970317866        -13.9094257        0.120832576           78.64085
2.6e+10       0.131144845         77.3262529        0.968154579        -14.9972189        0.968154579        -14.9972189        0.131146817         77.3286258
2.8e+10       0.141358995         76.0315706        0.965966231        -16.0832787        0.965966231        -16.0832787        0.141361157         76.0340896
3e+10       0.151475326           74.75572        0.963744118        -17.1677962        0.963744118        -17.1677962         0.15147768         74.7583866
3.2e+10       0.161496236         73.4984954        0.961481555        -18.2508932        0.961481555        -18.2508932        0.161498783         73.5013104
3.4e+10       0.171424035         72.2589953        0.959173403         -19.332647        0.959173403         -19.332647        0.171426776         72.2619599
3.6e+10       0.181260747         71.0359987        0.956815734        -20.4131037        0.956815734        -20.4131037        0.181263682         71.0391134
3.8e+10       0.191008019         69.8281767        0.954405569        -21.4922884        0.954405569        -21.4922884        0.191011151         69.8314422
4e+10       0.200667105         68.6342103        0.951940706        -22.5702106        0.951940706        -22.5702106        0.200670435          68.637627
4.2e+10       0.210238882         67.4528522        0.949419573        -23.6468689        0.949419573        -23.6468689        0.210242411         67.4564206
4.4e+10        0.21972388         66.2829559        0.946841131        -24.7222539        0.946841131        -24.7222539        0.219727611         66.2866762
4.6e+10       0.229122329         65.1234858        0.944204786        -25.7963503        0.944204786        -25.7963503        0.229126263         65.1273584
4.8e+10       0.238434198         63.9735176        0.941510332        -26.8691397        0.941510332        -26.8691397        0.238438336         63.9775425
5e+10       0.247659239         62.8322311        0.938757891        -27.9406005        0.938757891        -27.9406005        0.247663582         62.8364088
5.2e+10       0.256797025         61.6989031        0.935947871        -29.0107107        0.935947871        -29.0107107        0.256801576         61.7032337
5.4e+10       0.265846987          60.572897        0.933080936        -30.0794474        0.933080936        -30.0794474        0.265851747         60.5773807
5.6e+10       0.274808441         59.4536526        0.930157965        -31.1467886        0.930157965        -31.1467886        0.274813412         59.4582895
5.8e+10       0.283680619         58.3406776         0.92718003        -32.2127133         0.92718003        -32.2127133        0.283685803         58.3454677
6e+10       0.292462685         57.2335382        0.924148375         -33.277202        0.924148375         -33.277202        0.292468084         57.2384818
6.2e+10       0.301153761         56.1318521        0.921064392        -34.3402371        0.921064392        -34.3402371        0.301159376         56.1369491
6.4e+10        0.30975294         55.0352811        0.917929602        -35.4018032        0.917929602        -35.4018032        0.309758772         55.0405319
6.6e+10       0.318259298         53.9435258        0.914745643        -36.4618876        0.914745643        -36.4618876         0.31826535         53.9489306
6.8e+10       0.326671908         52.8563197        0.911514253          -37.52048        0.911514253          -37.52048        0.326678181         52.8618782
7e+10       0.334989847         51.7734244        0.908237263        -38.5775729        0.908237263        -38.5775729        0.334996343         51.7791371
7.2e+10       0.343212205         50.6946268        0.904916578        -39.6331618        0.904916578        -39.6331618        0.343218926         50.7004935
7.4e+10       0.351338092         49.6197339        0.901554173        -40.6872447        0.901554173        -40.6872447         0.35134504         49.6257551
7.6e+10       0.359366639         48.5485719        0.898152084        -41.7398232        0.898152084        -41.7398232        0.359373817         48.5547477
7.8e+10       0.367297006         47.4809819        0.894712397        -42.7909012        0.894712397        -42.7909012        0.367304415         47.4873124
8e+10       0.375128383         46.4168186        0.891237246        -43.8404861        0.891237246        -43.8404861        0.375136025         46.4233038
8.2e+10       0.382859992         45.3559476        0.887728802        -44.8885879        0.887728802        -44.8885879        0.382867869         45.3625881
8.4e+10       0.390491089         44.2982451        0.884189273        -45.9352199        0.884189273        -45.9352199        0.390499204         44.3050409
8.6e+10       0.398020965          43.243595        0.880620893         -46.980398        0.880620893         -46.980398         0.39802932         43.2505465
8.8e+10       0.405448946         42.1918887        0.877025923        -48.0241415        0.877025923        -48.0241415        0.405457545         42.1989961
9e+10       0.412774396         41.1430233        0.873406645        -49.0664721        0.873406645        -49.0664721        0.412783239         41.1502869
9.2e+10       0.419996712         40.0969012        0.869765357        -50.1074147        0.869765357        -50.1074147        0.420005802         40.1043214
9.4e+10       0.427115326         39.0534291        0.866104372        -51.1469971        0.866104372        -51.1469971        0.427124667         39.0610061
9.6e+10       0.434129707         38.0125167        0.862426016        -52.1852497        0.862426016        -52.1852497        0.434139301         38.0202511
9.8e+10       0.441039357         36.9740774        0.858732624        -53.2222061        0.858732624        -53.2222061        0.441049206         36.9819697
1e+11       0.447843808         35.9380264        0.855026539        -54.2579022        0.855026539        -54.2579022        0.447853916         35.9460769
