! Created Thu Oct  1 20:35:19 2026
! List of port names and net name(s): example Port n = <port_name> <net_name1> <net_name2> ...
! Port 1 = P1 P1 
! Port 2 = P2 P1 
# hz S ma R 50
! Port[1] 
! Port[2] 
! 2 Port Network Data from data block
! freq  magS11  angS11  magS21  angS21  magS12  angS12  magS22  angS22  
!     
0     0.00269124452                  0        0.997308755                  0        0.997308755                  0      0.00269124452                  0
2e+09     0.00695050143         66.4563098        0.996467086        -1.08770637        0.996467086        -1.08770637      0.00695042057         66.4486595
4e+09      0.0131503596         79.6148496        0.994886467        -2.14067776        0.994886467        -2.14067776       0.0131495976         79.6005338
6e+09      0.0201275898         84.8371225         0.99288432        -3.15589376         0.99288432        -3.15589376       0.0201253186         84.8178653
8e+09      0.0277384041         86.9903039         0.99073332        -4.13554191         0.99073332        -4.13554191       0.0277339359         86.9673316
1e+10       0.035776494         87.5698451        0.988614048         -5.0870261        0.988614048         -5.0870261       0.0357693823         87.5438038
1.2e+10      0.0440549426         87.3034099        0.986606032        -6.01860564        0.986606032        -6.01860564       0.0440449401         87.2745737
1.4e+10      0.0524409092         86.5840195        0.984724322        -6.93696295        0.984724322        -6.93696295       0.0524278979         86.5524712
1.6e+10      0.0608512857          85.627495         0.98295413        -7.84676245         0.98295413        -7.84676245       0.0608352225         85.5932299
1.8e+10      0.0692381541         84.5525843        0.981271279        -8.75103073        0.981271279        -8.75103073       0.0692190358         84.5155621
2e+10      0.0775758457         83.4245671        0.979651581        -9.65166988        0.979651581        -9.65166988       0.0775536895         83.3847362
2.2e+10      0.0858519565         82.2791153        0.978074156        -10.5498663        0.978074156        -10.5498663       0.0858267884         82.2364235
2.4e+10      0.0940616844         81.1353846        0.976522042         -11.446367        0.976522042         -11.446367       0.0940335334         81.0897833
2.6e+10       0.102204412         80.0032551        0.974981783        -12.3416518        0.974981783        -12.3416518        0.102173306         79.9547003
2.8e+10        0.11028169         78.8873818        0.973442766        -13.2360373        0.973442766        -13.2360373        0.110247658         78.8358353
3e+10       0.118296069         77.7894903        0.971896594        -14.1297377        0.971896594        -14.1297377        0.118259137         77.7349184
3.2e+10       0.126250429         76.7096909        0.970336581        -15.0229023        0.970336581        -15.0229023        0.126210619         76.6520637
3.4e+10        0.13414761          75.647236        0.968757351        -15.9156367        0.968757351        -15.9156367        0.134104943         75.5865275
3.6e+10       0.141990222         74.6009593        0.967154549        -16.8080169        0.967154549        -16.8080169        0.141944718         74.5371463
3.8e+10       0.149780557         73.5695266        0.965524634        -17.7000975        0.965524634        -17.7000975        0.149732231         73.5025884
4e+10       0.157520555         72.5515784        0.963864714        -18.5919178        0.963864714        -18.5919178        0.157469424         72.4814967
4.2e+10       0.165211817         71.5458071        0.962172426        -19.4835056        0.962172426        -19.4835056        0.165157895         71.4725652
4.4e+10       0.172855619         70.5509956        0.960445851          -20.37488        0.960445851          -20.37488         0.17279892         70.4745784
4.6e+10       0.180452952         69.5660345        0.958683443        -21.2660535        0.958683443        -21.2660535        0.180393486         69.4864279
4.8e+10       0.188004544         68.5899247        0.956883969        -22.1570338        0.956883969        -22.1570338        0.187942324         68.5071162
5e+10       0.195510906         67.6217753        0.955046468        -23.0478249        0.955046468        -23.0478249        0.195445941         67.5357527
5.2e+10       0.202972353         66.6607944        0.953170215        -23.9384285        0.953170215        -23.9384285        0.202904652         66.5715467
5.4e+10       0.210389037          65.706282        0.951254688        -24.8288442        0.951254688        -24.8288442        0.210318608         65.6137986
5.6e+10        0.21776097          64.757619        0.949299543        -25.7190703        0.949299543        -25.7190703        0.217687824         64.6618902
5.8e+10       0.225088048         63.8142592        0.947304597        -26.6091048        0.947304597        -26.6091048        0.225012193         63.7152755
6e+10        0.23237007         62.8757203        0.945269801        -27.4989452        0.945269801        -27.4989452        0.232291512         62.7734726
6.2e+10       0.239606751         61.9415756        0.943195229         -28.388589        0.943195229         -28.388589        0.239525498         61.8360552
6.4e+10       0.246797741         61.0114474        0.941081068        -29.2780342        0.941081068        -29.2780342        0.246713799         60.9026457
6.6e+10        0.25394263         60.0850012        0.938927597        -30.1672791        0.938927597        -30.1672791        0.253856007         59.9729101
6.8e+10       0.261040965         59.1619389        0.936735184        -31.0563227        0.936735184        -31.0563227        0.260951667         59.0465506
7e+10       0.268092255         58.2419957        0.934504274        -31.9451646        0.934504274        -31.9451646        0.268000288         58.1233024
7.2e+10       0.275095978         57.3249348         0.93223538        -32.8338055         0.93223538        -32.8338055        0.275001349         57.2029289
7.4e+10       0.282051589         56.4105438         0.92992908        -33.7222465         0.92992908        -33.7222465        0.281954304         56.2852177
7.6e+10       0.288958524          55.498632        0.927586006        -34.6104901        0.927586006        -34.6104901        0.288858588         55.3699783
7.8e+10       0.295816201         54.5890275        0.925206843        -35.4985393        0.925206843        -35.4985393         0.29571362         54.4570388
8e+10       0.302624031         53.6815752        0.922792321        -36.3863985        0.922792321        -36.3863985         0.30251881         53.5462439
8.2e+10       0.309381414         52.7761335        0.920343215        -37.2740724        0.920343215        -37.2740724        0.309273559         52.6374527
8.4e+10       0.316087745          51.872574        0.917860336        -38.1615672        0.917860336        -38.1615672        0.315977262         51.7305363
8.6e+10       0.322742415         50.9707793        0.915344534        -39.0488899        0.915344534        -39.0488899        0.322629309         50.8253775
8.8e+10       0.329344814         50.0706418        0.912796688        -39.9360482        0.912796688        -39.9360482        0.329229089         49.9218688
9e+10        0.33589433         49.1720622         0.91021771        -40.8230509         0.91021771        -40.8230509        0.335775992         49.0199106
9.2e+10       0.342390353         48.2749489        0.907608542        -41.7099077        0.907608542        -41.7099077        0.342269407         48.1194115
9.4e+10       0.348832275         47.3792168         0.90497015        -42.5966292         0.90497015        -42.5966292        0.348708725         47.2202864
9.6e+10        0.35521949         46.4847869        0.902303526        -43.4832267        0.902303526        -43.4832267        0.355093342         46.3224561
9.8e+10       0.361551395         45.5915851        0.899609684        -44.3697126        0.899609684        -44.3697126        0.361422654         45.4258467
1e+11       0.367827393         44.6995421        0.896889664           -45.2561        0.896889664           -45.2561        0.367696062         44.5303885
